benchmarks/sr2008/minisat/post-cbmc-aes-d-r1.cnf.gz.minisat.out
WARNING: for repeatability, setting FPU to use double precision
============================[ Problem Statistics ]=============================
|                                                                             |
|  Number of variables:         40723                                         |
|  Number of clauses:          237899                                         |
|  Parse time:                   0.03 s                                       |
|                                                                             |
============================[ Search Statistics ]==============================
| Conflicts |          ORIGINAL         |          LEARNT          | Progress |
|           |    Vars  Clauses Literals |    Limit  Clauses Lit/Cl |          |
===============================================================================
|       100 |   28364   215793   605756 |    79124       84     15 | 30.349 % |
|       250 |   28364   215793   605756 |    87036      234      9 | 30.349 % |
|       475 |   28364   215521   605164 |    95740      459     10 | 30.349 % |
|       812 |   28364   215521   605164 |   105314      796      9 | 30.349 % |
|      1318 |   28364   215521   605164 |   115845     1302     10 | 30.349 % |
|      2077 |   28364   215521   605164 |   127430     2061     12 | 30.349 % |
|      3216 |   28364   215521   605164 |   140173     3200     13 | 30.349 % |
|      4924 |   28364   215521   605164 |   154190     4908     15 | 30.349 % |
|      7486 |   28364   215521   605164 |   169609     7470     16 | 30.349 % |
|     11330 |   28346   215471   605018 |   186570    10253     17 | 30.393 % |
|     17096 |   28271   215262   604410 |   205227     8078     18 | 30.577 % |
===============================================================================
restarts              : 63
conflicts             : 19081          (26501 /sec)
decisions             : 110983         (0.00 % random) (154143 /sec)
propagations          : 8906292        (12369850 /sec)
conflict literals     : 281062         (44.66 % deleted)
Memory used           : 38.00 MB
CPU time              : 0.72 s

UNSATISFIABLE
